research/drat/n3_k5.cnf
p cnf 87 215
-1 3 0
-10 -1 3 0
-10 1 -3 0
10 1 3 0
10 -1 -3 0
-10 -3 1 0
-12 10 0
-12 -3 1 0
-12 3 -1 0
12 -10 -3 -1 0
12 -10 3 1 0
-12 -4 6 0
-13 12 0
-13 -4 6 0
-13 4 -6 0
13 -12 -4 -6 0
13 -12 4 6 0
-13 -6 4 0
-15 13 0
-15 -6 4 0
-15 6 -4 0
15 -13 -6 -4 0
15 -13 6 4 0
-15 -7 9 0
-16 15 0
-16 -7 9 0
-16 7 -9 0
16 -15 -7 -9 0
16 -15 7 9 0
-16 -9 7 0
-18 16 0
-18 -9 7 0
-18 9 -7 0
18 -16 -9 -7 0
18 -16 9 7 0
-2 1 3 5 0
-6 5 9 0
-8 7 9 0
-1 2 0
-5 4 6 2 0
-7 8 4 0
-3 2 0
-9 8 6 0
-4 5 7 0
-19 1 0
-19 2 0
-19 3 0
-20 7 0
-20 8 0
-20 9 0
19 20 0
-21 2 0
-21 3 0
-21 5 0
-22 4 0
-22 5 0
-22 7 0
21 22 0
-23 4 0
-23 5 0
-23 6 0
23 0
-24 2 0
-24 4 0
-24 5 0
-25 6 0
-25 8 0
-25 9 0
24 25 0
-26 2 0
-26 5 0
-26 6 0
-27 4 0
-27 7 0
-27 8 0
26 27 0
-28 1 0
-28 2 0
-28 5 0
-29 5 0
-29 6 0
-29 9 0
28 29 0
-44 30 0
-45 31 0
-46 32 0
-47 33 0
-39 30 0
-40 31 0
-41 32 0
-42 33 0
-43 34 0
-39 -44 31 0
-39 -45 32 0
-39 -46 33 0
-39 -47 34 0
-40 -44 32 0
-40 -45 33 0
-40 -46 34 0
-40 -47 35 0
-41 -44 33 0
-41 -45 34 0
-41 -46 35 0
-41 -47 36 0
-42 -44 34 0
-42 -45 35 0
-42 -46 36 0
-42 -47 37 0
-43 -44 35 0
-43 -45 36 0
-43 -46 37 0
-43 -47 38 0
-50 44 0
-51 45 0
-48 44 0
-49 45 0
-48 -50 45 0
-48 -51 46 0
-49 -50 46 0
-49 -51 47 0
9 50 0
8 50 0
8 9 51 0
7 48 0
6 48 0
6 7 49 0
-55 39 0
-56 40 0
-52 39 0
-53 40 0
-54 41 0
-52 -55 40 0
-52 -56 41 0
-53 -55 41 0
-53 -56 42 0
-54 -55 42 0
-54 -56 43 0
5 55 0
4 55 0
4 5 56 0
3 52 0
-57 52 0
-58 53 0
-57 3 53 0
-58 3 54 0
2 57 0
1 57 0
1 2 58 0
-34 0
-73 59 0
-74 60 0
-75 61 0
-76 62 0
-68 59 0
-69 60 0
-70 61 0
-71 62 0
-72 63 0
-68 -73 60 0
-68 -74 61 0
-68 -75 62 0
-68 -76 63 0
-69 -73 61 0
-69 -74 62 0
-69 -75 63 0
-69 -76 64 0
-70 -73 62 0
-70 -74 63 0
-70 -75 64 0
-70 -76 65 0
-71 -73 63 0
-71 -74 64 0
-71 -75 65 0
-71 -76 66 0
-72 -73 64 0
-72 -74 65 0
-72 -75 66 0
-72 -76 67 0
-79 73 0
-80 74 0
-77 73 0
-78 74 0
-77 -79 74 0
-77 -80 75 0
-78 -79 75 0
-78 -80 76 0
-9 79 0
-8 79 0
-8 -9 80 0
-7 77 0
-6 77 0
-6 -7 78 0
-84 68 0
-85 69 0
-81 68 0
-82 69 0
-83 70 0
-81 -84 69 0
-81 -85 70 0
-82 -84 70 0
-82 -85 71 0
-83 -84 71 0
-83 -85 72 0
-5 84 0
-4 84 0
-4 -5 85 0
-3 81 0
-86 81 0
-87 82 0
-86 -3 82 0
-87 -3 83 0
-2 86 0
-1 86 0
-1 -2 87 0
-64 0
