research/drat/n3_k5.drat
4 0
5 0
6 0
d -24 4 0
d -24 5 0
d -25 6 0
d -26 5 0
d -26 6 0
d -27 4 0
d -28 5 0
d -29 5 0
d -29 6 0
d 6 48 0
d 6 7 49 0
d 5 55 0
d 4 55 0
d 4 5 56 0
-43 0
77 0
d -6 77 0
73 0
59 0
-7 78 0
d -6 -7 78 0
84 0
d -5 84 0
68 0
60 0
d -4 84 0
85 0
d -4 -5 85 0
69 0
61 0
-72 0
-76 0
-83 0
-20 0
19 0
1 0
2 0
3 0
10 0
86 0
87 0
81 0
0
